6 32 4 10
7 18 9 14 14 18 18 8 20 14 9 1 11 3 17 18 7 1 11 20 10 14 18 14 9 14 14 1 6 12 5 20 
2.67 6.84 13.42 8.24 6.86 5.21 2.81 13.11 14.32 3.03 8.96 10.57 13.69 3.5 15.31 3.17 8.44 0.84 2.52 7.19 1.21 13.67 12.06 4.17 13.57 2.28 2.15 13.66 0.48 10.43 4.63 11.98 
6.86 6.77 12.74 8.79 0.67 15.99 1.22 4.32 4.95 4.61 6.55 10.97 4.78 10.35 3.6 14.92 13.13 10.89 5.28 2.17 4.65 2.25 12.32 14.44 13.61 11.9 12.07 4.56 10.08 12.71 14.02 8.67 
5.69 5.28 5.64 8.05 13.68 15.95 9.82 4.87 14.56 1.45 12.06 15.81 0.56 5.86 11.59 14.19 11.58 6.77 13.41 14.16 13.86 3.18 12.43 6.5 13.37 3.34 0.97 14.48 1.49 14.43 9.1 10.7 
0.09 14.82 0.63 14.35 4.19 12.59 3.5 6.1 14.19 7.51 13.2 13.05 2.73 8.95 6.58 6.08 9.34 3.04 14.67 12.7 13.93 7.54 15.27 5.1 0.74 5.64 8.81 13.91 11.51 3.59 7.91 0.8 
8 8 8 8 8 8 8 8 8 8 8 8 8 8 8 8 8 8 8 8 8 8 8 8 8 8 8 8 8 8 8 8 
9.87 3.14 14.76 15.6 6.95 4.86 11.14 10.31 9.89 8.48 11.05 13.18 1.42 3.99 9.39 8.01 1.8 7.74 14.79 11.48 0.84 6.58 3.81 15.25 13.1 13.32 3.02 1.97 3 11.77 4.42 11.86 
1 1 1 1 1 1 1 1 1 1 1 1 1 1 1 1 1 1 1 1 1 1 1 1 1 1 1 1 1 1 1 1 
1 1 1 1 1 1 1 1 1 1 1 1 1 1 1 1 1 1 1 1 1 1 1 1 1 1 1 1 1 1 1 1 
1 1 1 1 1 1 1 1 1 1 1 1 1 1 1 1 1 1 1 1 1 1 1 1 1 1 1 1 1 1 1 1 
1 1 1 1 1 1 1 1 1 1 1 1 1 1 1 1 1 1 1 1 1 1 1 1 1 1 1 1 1 1 1 1 
1 1 1 1 1 1 1 1 1 1 1 1 1 1 1 1 1 1 1 1 1 1 1 1 1 1 1 1 1 1 1 1 
1 1 1 1 1 1 1 1 1 1 1 1 1 1 1 1 1 1 1 1 1 1 1 1 1 1 1 1 1 1 1 1 
0.01 0.01 0.01 0.01 0.01 0.01 0.01 0.01 0.01 0.01 0.01 0.01 0.01 0.01 0.01 0.01 0.01 0.01 0.01 0.01 0.01 0.01 0.01 0.01 0.01 0.01 0.01 0.01 0.01 0.01 0.01 0.01 
0.02 0.02 0.02 0.02 0.02 0.02 0.02 0.02 0.02 0.02 0.02 0.02 0.02 0.02 0.02 0.02 0.02 0.02 0.02 0.02 0.02 0.02 0.02 0.02 0.02 0.02 0.02 0.02 0.02 0.02 0.02 0.02 
0.03 0.03 0.03 0.03 0.03 0.03 0.03 0.03 0.03 0.03 0.03 0.03 0.03 0.03 0.03 0.03 0.03 0.03 0.03 0.03 0.03 0.03 0.03 0.03 0.03 0.03 0.03 0.03 0.03 0.03 0.03 0.03 
0.04 0.04 0.04 0.04 0.04 0.04 0.04 0.04 0.04 0.04 0.04 0.04 0.04 0.04 0.04 0.04 0.04 0.04 0.04 0.04 0.04 0.04 0.04 0.04 0.04 0.04 0.04 0.04 0.04 0.04 0.04 0.04 
0.05 0.05 0.05 0.05 0.05 0.05 0.05 0.05 0.05 0.05 0.05 0.05 0.05 0.05 0.05 0.05 0.05 0.05 0.05 0.05 0.05 0.05 0.05 0.05 0.05 0.05 0.05 0.05 0.05 0.05 0.05 0.05 
1 1 1 1 1 1 1 1 1 1 1 1 1 1 1 1 1 1 1 1 1 1 1 1 1 1 1 1 1 1 1 1 
